%nprocshared=40
%mem=100GB
# m062x/6-31+g(d) opt freq

CO2

0 1
 C                  0.05828663    1.07591071   -0.99359467
 O                  1.31668663    1.07591071   -0.99359467
 O                 -1.20011337    1.07591071   -0.99359467


