%nprocshared=40
%mem=100GB
# m062x/6-31+g(d) opt freq

water

0 1
 O                 -2.61019268   -0.24793388    0.00000000
 H                 -1.65019268   -0.24793388    0.00000000
 H                 -2.93064726    0.65700195    0.00000000



